# Created by Octave 6.4.0, Tue Feb 08 14:29:55 2022 GMT <unknown@glomet-fixe>
# name: a
# type: scalar struct
# ndims: 2
 1 1
# length: 3
# name: freq_min
# type: scalar
200


# name: freq_max
# type: scalar
368


# name: pas
# type: scalar
0.25




# name: ans
# type: matrix
# rows: 7
# columns: 273
 0 0 0 0 0 0 0 0 0 0 0 0 0 0 0 0 0 0 0 0 0 0 0 0 0 0 0 0 0 0 0 0 0 0 0 0 0 0 0 0 0 0 0 0 0 0 0 0 0 0 0 0 0 0 0 0 0 0 0 0 0 0 0 0 0 0 0 0 0 0 0 0 0 0 0 0 0 0 0 0 0 0 0 0 0 0 0 0 0 0 0 0 0 0 0 0 0 0 0 0 0 0 0 0 0 0 0 0 0 0 0 0 0 0 0 0 0 0 0 0 0 0 0 0 0 0 0 0 0 0 0 0 0 0 0 0 0 0 0 0 0 0 0 0 0 0 0 0 0 0 0 0 0 0 0 0 0 0 0 0 0 0 0 0 0 0 0 0 0 0 0 0 0 0 0 0 0 0 0 0 0 0 0 0 0 0 0 0 0 0 0 0 0 0 0 0 0 0 0 0 0 0 0 0 0 0 0 0 0 0 0 0 0 0 0 0 0 0 0 0 0.000495 0.010090999999999999 0.0054039999999999999 0.0082839999999999997 0.012727 0.0093939999999999996 0.017257000000000002 0.014041 0.0080249999999999991 0.015824999999999999 0.021642000000000002 0.025784000000000001 0.0045459999999999997 0.0049849999999999998 0.001116 0.002415 0.0020530000000000001 0.00082899999999999998 0.002026 0.00076599999999999997 0.00058799999999999998 0.00092699999999999998 0.00084000000000000003 0.001297 0.00094799999999999995 0.001224 0.001882 0.0026619999999999999 0.001224 0.0029450000000000001 0.0035729999999999998 0.0023700000000000001 0.0033890000000000001 0.0033409999999999998 0.0040689999999999997 0.0039550000000000002 0.003748 0.0036610000000000002 0.002464 0.0026940000000000002 0.0025119999999999999 0.0031150000000000001 0.0010660000000000001 0.0023270000000000001 0.001457 0.00054900000000000001 0.00052300000000000003 0.00033799999999999998 0.00056599999999999999 0.00026699999999999998 0.00031 0.00030600000000000001 0.00034900000000000003
 0 0 0 0 0 0 0 0 0 0 0 0 0 0 0 0 0 0 0 0 0 0 0 0 0 0 0 0 0 0 0 0 0 0 0 0 0 0 0 0 0 0 0 0 0 0 0 0 0 0 0 0 0 0 0 0 0 0 0 0 0 0 0 0 0 0 0 0 0 0 0 0 0 0 0 0 0 0 0 0 0 0 0 0 0 0 0 0 0 0 0 0 0 0 0 0 0 0 0 0 0 0 0 0 0 0 0 0 0 0 0 0 0 0 0 0 0 0 0 0 0 0 0 0 0 0 0 0 0 0 0 0 0 0 0 0 0 0 0 0 0 0 0 0 0 0 0 0 0 0 0 0 0 0 0 0 0 0 0 0 0 0 0 0 0 0 0 0 0 0 0 0 0 0 0 0 0 0 0 0 0 0 0 0 0 0 0 0 0 0 0 0 0 0 0 0 0 0 0 0 0 0 0 0 0 0 0 0 0 0 0 0 0 0 0 0 0.0021117499999999999 0 0 0.00013650000000000001 0.0073142500000000004 0.017466250000000003 0.015942249999999998 0.016521250000000001 0.02401675 0.021822500000000002 0.02722925 0.02213675 0.01915275 0.024191999999999998 0.028116000000000002 0.034215499999999996 0.0061077500000000003 0.0062500000000000003 0.00137225 0.0034312500000000003 0.0026099999999999999 0.00092225000000000011 0.0025702500000000001 0.00079650000000000012 0.00077000000000000007 0.0010222499999999999 0.00091375000000000007 0.0013522500000000002 0.0010579999999999999 0.00129725 0.0019832499999999998 0.0027192500000000003 0.0013595 0.0030990000000000002 0.0038782500000000002 0.0025722499999999999 0.0034852499999999996 0.00360875 0.0042082500000000002 0.004099750000000001 0.0038274999999999997 0.0037392500000000004 0.0027554999999999997 0.0028289999999999995 0.002643 0.0032092500000000003 0.00132525 0.0024217500000000003 0.0015802500000000001 0.00068574999999999994 0.00060024999999999998 0.00036000000000000002 0.00064349999999999997 0.00027500000000000002 0.00032824999999999998 0.00032400000000000001 0.00037850000000000004
 0 0 0 0 0 0 0 0 0 0 0 0 0 0 0 0 0 0 0 0 0 0 0 0 0 0 0 0 0 0 0 0 0 0 0 0 0 0 0 0 0 0 0 0 0 0 0 0 0 0 0 0 0 0 0 0 0 0 0 0 0 0 0 0 0 0 0 0 0 0 0 0 0 0 0 0 0 0 0 0 0 0 0 0 0 0 0 0 0 0 0 0 0 0 0 0 0 0 0 0 0 0 0 0 0 0 0 0 0 0 0 0 0 0 0 0 0 0 0 0 0 0 0 0 0 0 0 0 0 0 0 0 0 0 0 0 0 0 0 0 0 0 0 0 0 0 0 0 0 0 0 0 0 0 0 0 0 0 0 0 0 0 0 0 0 0 0 0 0 0 0 0 0 0 0 0 0 0 0 0 0 0 0 0 0 0 0 0 0 0 0 0 0 0 0 0 0 0 0 0 0 0 0 0 0 0 0 0 0 0 0 0 0 0 0 0 0.0085334999999999994 0 0.0095310000000000013 0.0099019999999999993 0.0113305 0.023432000000000001 0.019450000000000002 0.022893999999999998 0.028818000000000003 0.027373999999999999 0.033907 0.026237999999999997 0.022712000000000003 0.031174500000000001 0.032754499999999999 0.0392915 0.0068830000000000002 0.0071339999999999997 0.001426 0.003859 0.0029364999999999999 0.00098299999999999993 0.0030040000000000002 0.0008095 0.00086699999999999993 0.0010585 0.00093150000000000004 0.0013994999999999999 0.001085 0.0013600000000000001 0.0020430000000000001 0.0027759999999999998 0.0014215 0.0032529999999999998 0.0040470000000000002 0.0026150000000000001 0.0035385 0.0037345 0.0043254999999999995 0.0042059999999999997 0.0039104999999999999 0.0037730000000000003 0.0028685 0.0029160000000000002 0.002758 0.0032629999999999998 0.0014065000000000002 0.0024735 0.001624 0.00079900000000000001 0.000629 0.0003725 0.00068199999999999999 0.00028150000000000001 0.00034000000000000002 0.00033199999999999999 0.00039550000000000002
 0 0 0 0 0 0 0 0 0 0 0 0 0 0 0 0 0 0 0 0 0 0 0 0 0 0 0 0 0 0 0 0 0 0 0 0 0 0 0 0 0 0 0 0 0 0 0 0 0 0 0 0 0 0 0 0 0 0 0 0 0 0 0 0 0 0 0 0 0 0 0 0 0 0 0 0 0 0 0 0 0 0 0 0 0 0 0 0 0 0 0 0 0 0 0 0 0 0 0 0 0 0 0 0 0 0 0 0 0 0 0 0 0 0 0 0 0 0 0 0 0 0 0 0 0 0 0 0 0 0 0 0 0 0 0 0 0 0 0 0 0 0 0 0 0 0 0 0 0 0 0 0 0 0 0 0 0 0 0 0 0 0 0 0 0 0 0 0 0 0 0 0 0 0 0 0 0 0 0 0 0 0 0 0 0 0 0 0 0 0 0 0 0 0 0 0 0 0 0 0 0 0 0 0 0 0 0 0 0 0 0 0 0 0 0 0 0.016618999999999998 0 0.014435999999999999 0.018443999999999999 0.017748 0.029895250000000002 0.025510749999999999 0.0290925 0.034361749999999996 0.032946999999999997 0.043403249999999997 0.032900499999999999 0.025141750000000001 0.036304249999999996 0.037926750000000002 0.052641750000000001 0.0083242500000000001 0.008829 0.00158775 0.0043712500000000001 0.0033007499999999999 0.0010467499999999999 0.0038142499999999999 0.00083224999999999998 0.00094800000000000006 0.0011085000000000001 0.00098200000000000002 0.0014957499999999999 0.0011492499999999999 0.001392 0.0021392500000000001 0.0028314999999999998 0.0014747499999999999 0.0033384999999999999 0.0042217499999999998 0.0027100000000000002 0.0035832499999999996 0.0039225000000000006 0.0045245000000000007 0.0043309999999999998 0.0039850000000000007 0.0038192500000000002 0.0029592500000000001 0.0030270000000000002 0.0027957500000000001 0.0033085000000000002 0.0014727499999999999 0.0025127500000000002 0.0016604999999999999 0.00086450000000000003 0.00064775 0.00038400000000000001 0.00074100000000000001 0.00029274999999999999 0.00035274999999999998 0.00034399999999999996 0.00043324999999999999
 0 0 0 0 0 0 0 0 0 0 0 0 0 0 0 0 0 0 0 0 0 0 0 0 0 0 0 0 0 0 0 0 0 0 0 0 0 0 0 0 0 0 0 0 0 0 0 0 0 0 0 0 0 0 0 0 0 0 0 0 0 0 0 0 0 0 0 0 0 0 0 0 0 0 0 0 0 0 0 0 0 0 0 0 0 0 0 0 0 0 0 0 0 0 0 0 0 0 0 0 0 0 0 0 0 0 0 0 0 0 0 0 0 0 0 0 0 0 0 0 0 0 0 0 0 0 0 0 0 0 0 0 0 0 0 0 0 0 0 0 0 0 0 0 0 0 0 0 0 0 0 0 0 0 0 0 0 0 0 0 0 0 0 0 0 0 0 0 0 0 0 0 0 0 0 0 0 0 0 0 0 0 0 0 0 0 0 0 0 0 0 0 0 0 0 0 0 0 0 0 0 0 0 0 0 0 0 0 0.030620999999999999 0.00032400000000000001 0 0 0.047365999999999998 0.0090200000000000002 0.014371999999999999 0.025721999999999998 0.066129999999999994 0.014199 0.047794000000000003 0.070682999999999996 0.064545000000000005 0.050834999999999998 0.044176 0.071633000000000002 0.054332999999999999 0.045350000000000001 1447.1829829999999 0.047940999999999998 700.67675799999995 1034.1102289999999 1002.315002 1002.313721 113.34637499999999 177.24771100000001 21.659849000000001 79.191139000000007 52.944450000000003 9.8581819999999993 61.659942999999998 4.3854129999999998 7.8994609999999996 4.633883 3.3634590000000002 3.267563 3.3499669999999999 3.271976 3.2640210000000001 3.2604489999999999 0.0016750000000000001 0.0034849999999999998 0.0045409999999999999 0.0028389999999999999 0.0037320000000000001 0.0043569999999999998 0.0047850000000000002 0.0047889999999999999 0.0040810000000000004 0.0039269999999999999 0.0031580000000000002 0.0032880000000000001 0.002862 0.0033930000000000002 0.0016869999999999999 0.0026549999999999998 0.0017539999999999999 0.001059 0.00075500000000000003 0.00047800000000000002 0.00088800000000000001 0.00031599999999999998 0.000417 0.00060700000000000001 0.00051999999999999995
 0 0 0 0 0 0 0 0 0 0 0 0 0 0 0 0 0 0 0 0 0 0 0 0 0 0 0 0 0 0 0 0 0 0 0 0 0 0 0 0 0 0 0 0 0 0 0 0 0 0 0 0 0 0 0 0 0 0 0 0 0 0 0 0 0 0 0 0 0 0 0 0 0 0 0 0 0 0 0 0 0 0 0 0 0 0 0 0 0 0 0 0 0 0 0 0 0 0 0 0 0 0 0 0 0 0 0 0 0 0 0 0 0 0 0 0 0 0 0 0 0 0 0 0 0 0 0 0 0 0 0 0 0 0 0 0 0 0 0 0 0 0 0 0 0 0 0 0 0 0 0 0 0 0 0 0 0 0 0 0 0 0 0 0 0 0 0 0 0 0 0 0 0 0 0 0 0 0 0 0 0 0 0 0 0 0 0 0 0 0 0 0 0 0 0 0 0 0 0 0 0 0 0 0 0 0 0 0 0 0 0 0 0 0 0 0 0.0053124330966702778 0 0.0063257528431323751 0.0058371577774761658 0.0090138785312435868 0.020672370122422574 0.017325491311963988 0.020102786137380702 0.026521083829468307 0.024904010252384739 0.030315862045221877 0.023848108126577033 0.021382253171066765 0.028485198609325999 0.030576204173992861 0.035200291533372674 0.0063908671153230061 0.0065613806859544464 0.0013781522054374499 0.0036502903624649786 0.0027831317211411532 0.00095535707460307426 0.0027277927775600356 0.00080156237282779047 0.00082747838778592141 0.0010393497805985153 0.00091634634812578174 0.0013676384755465154 0.0010647396229520524 0.0013389625125995285 0.0020083630814303581 0.0027510769608369082 0.0013959108662490306 0.0031998234487344282 0.0039707321696880009 0.0025844151568399478 0.0035167409101293273 0.0036648376076844542 0.0042552825288612222 0.004154655208851092 0.0038755300341364188 0.0037552374776565942 0.0028232610759066374 0.00287203775720007 0.0027240846839005589 0.0032409633707177117 0.0013737503494293452 0.0024532951308343758 0.0016061819697742708 0.00075931186413895205 0.00061845350235860267 0.00036717124329697817 0.00066035192589397379 0.0002775589403550568 0.00033456022753233192 0.00032755936941414847 0.00038334377377123151
 0 0 0 0 0 0 0 0 0 0 0 0 0 0 0 0 0 0 0 0 0 0 0 0 0 0 0 0 0 0 0 0 0 0 0 0 0 0 0 0 0 0 0 0 0 0 0 0 0 0 0 0 0 0 0 0 0 0 0 0 0 0 0 0 0 0 0 0 0 0 0 0 0 0 0 0 0 0 0 0 0 0 0 0 0 0 0 0 0 0 0 0 0 0 0 0 0 0 0 0 0 0 0 0 0 0 0 0 0 0 0 0 0 0 0 0 0 0 0 0 0 0 0 0 0 0 0 0 0 0 0 0 0 0 0 0 0 0 0 0 0 0 0 0 0 0 0 0 0 0 0 0 0 0 0 0 0 0 0 0 0 0 0 0 0 0 0 0 0 0 0 0 0 0 0 0 0 0 0 0 0 0 0 0 0 0 0 0 0 0 0 0 0 0 0 0 0 0 0 0 0 0 0 0 0 0 0 0 0 0 0 0 0 0 0 0 0.011754566903329721 0 0.012736247156867627 0.013966842222523833 0.013647121468756414 0.026191629877577428 0.021574508688036016 0.025685213862619294 0.031114916170531699 0.029843989747615259 0.037498137954778119 0.028627891873422961 0.024041746828933241 0.033863801390674006 0.03493279582600714 0.043382708466627326 0.0073751328846769944 0.0077066193140455531 0.00147384779456255 0.0040677096375350214 0.0030898682788588466 0.0010106429253969255 0.0032802072224399647 0.00081743762717220953 0.00090652161221407845 0.0010776502194014847 0.00094665365187421833 0.0014313615244534845 0.0011052603770479476 0.0013810374874004717 0.0020776369185696421 0.0028009230391630915 0.0014470891337509694 0.0033061765512655715 0.0041232678303119996 0.0026455848431600525 0.0035602590898706726 0.0038041623923155458 0.0043957174711387768 0.0042573447911489074 0.003945469965863581 0.0037907625223434064 0.0029137389240933625 0.0029599622427999303 0.0027919153160994412 0.003285036629282288 0.0014392496505706552 0.0024937048691656243 0.0016418180302257292 0.00083868813586104797 0.00063954649764139733 0.00037782875670302183 0.00070364807410602619 0.00028544105964494322 0.00034543977246766813 0.00033644063058585152 0.00040765622622876852


# name: cmd_fpga
# type: sq_string
# elements: 1
# length: 100
ssh root@192.168.1.23 /home/fpga/test_scal/test_scal/bin/ARM/Debug/test_scal.out -json settings.json


# name: filename
# type: sq_string
# elements: 1
# length: 8
out.json


# name: fin
# type: scalar
3


# name: i
# type: scalar
273


# name: input_file
# type: sq_string
# elements: 1
# length: 13
settings.json


# name: it
# type: scalar
50


# name: j
# type: scalar
50


# name: json_str
# type: sq_string
# elements: 1
# length: 21484
{
 "output":
 [
  {"freq":300.000000, "error_rate":0.000000, "mean":0.000000, "var":0.000000}
  {"freq":300.347229, "error_rate":0.000000, "mean":0.000000, "var":0.000000}
  {"freq":300.480774, "error_rate":0.000000, "mean":0.000000, "var":0.000000}
  {"freq":300.724640, "error_rate":0.000000, "mean":0.000000, "var":0.000000}
  {"freq":300.925934, "error_rate":0.000000, "mean":0.000000, "var":0.000000}
  {"freq":301.339294, "error_rate":0.000000, "mean":0.000000, "var":0.000000}
  {"freq":301.411285, "error_rate":0.000000, "mean":0.000000, "var":0.000000}
  {"freq":301.724152, "error_rate":0.000000, "mean":0.000000, "var":0.000000}
  {"freq":302.083344, "error_rate":0.000000, "mean":0.000000, "var":0.000000}
  {"freq":302.272736, "error_rate":0.000000, "mean":0.000000, "var":0.000000}
  {"freq":302.419342, "error_rate":0.000000, "mean":0.000000, "var":0.000000}
  {"freq":302.777771, "error_rate":0.000000, "mean":0.000000, "var":0.000000}
  {"freq":303.030304, "error_rate":0.000000, "mean":0.000000, "var":0.000000}
  {"freq":303.240753, "error_rate":0.000000, "mean":0.000000, "var":0.000000}
  {"freq":303.571442, "error_rate":0.000000, "mean":0.000000, "var":0.000000}
  {"freq":303.819427, "error_rate":0.000000, "mean":0.000000, "var":0.000000}
  {"freq":303.977264, "error_rate":0.000000, "mean":0.000000, "var":0.000000}
  {"freq":304.347839, "error_rate":0.000000, "mean":0.000000, "var":0.000000}
  {"freq":304.435486, "error_rate":0.000000, "mean":0.000000, "var":0.000000}
  {"freq":304.687500, "error_rate":0.000000, "mean":0.000000, "var":0.000000}
  {"freq":305.000000, "error_rate":0.000000, "mean":0.000000, "var":0.000000}
  {"freq":305.288452, "error_rate":0.000000, "mean":0.000000, "var":0.000000}
  {"freq":305.555542, "error_rate":0.000000, "mean":0.000000, "var":0.000000}
  {"freq":305.803558, "error_rate":0.000000, "mean":0.000000, "var":0.000000}
  {"freq":306.034485, "error_rate":0.000000, "mean":0.000000, "var":0.000000}
  {"freq":306.250000, "error_rate":0.000000, "mean":0.000000, "var":0.000000}
  {"freq":306.451599, "error_rate":0.000000, "mean":0.000000, "var":0.000000}
  {"freq":306.818176, "error_rate":0.000000, "mean":0.000000, "var":0.000000}
  {"freq":307.065216, "error_rate":0.000000, "mean":0.000000, "var":0.000000}
  {"freq":307.291656, "error_rate":0.000000, "mean":0.000000, "var":0.000000}
  {"freq":307.500000, "error_rate":0.000000, "mean":0.000000, "var":0.000000}
  {"freq":307.692322, "error_rate":0.000000, "mean":0.000000, "var":0.000000}
  {"freq":308.035706, "error_rate":0.000000, "mean":0.000000, "var":0.000000}
  {"freq":308.333344, "error_rate":0.000000, "mean":0.000000, "var":0.000000}
  {"freq":308.467743, "error_rate":0.000000, "mean":0.000000, "var":0.000000}
  {"freq":308.712128, "error_rate":0.000000, "mean":0.000000, "var":0.000000}
  {"freq":309.027771, "error_rate":0.000000, "mean":0.000000, "var":0.000000}
  {"freq":309.294861, "error_rate":0.000000, "mean":0.000000, "var":0.000000}
  {"freq":309.523804, "error_rate":0.000000, "mean":0.000000, "var":0.000000}
  {"freq":309.782623, "error_rate":0.000000, "mean":0.000000, "var":0.000000}
  {"freq":310.000000, "error_rate":0.000000, "mean":0.000000, "var":0.000000}
  {"freq":310.185181, "error_rate":0.000000, "mean":0.000000, "var":0.000000}
  {"freq":310.416656, "error_rate":0.000000, "mean":0.000000, "var":0.000000}
  {"freq":310.763885, "error_rate":0.000000, "mean":0.000000, "var":0.000000}
  {"freq":311.011902, "error_rate":0.000000, "mean":0.000000, "var":0.000000}
  {"freq":311.197906, "error_rate":0.000000, "mean":0.000000, "var":0.000000}
  {"freq":311.507935, "error_rate":0.000000, "mean":0.000000, "var":0.000000}
  {"freq":311.666656, "error_rate":0.000000, "mean":0.000000, "var":0.000000}
  {"freq":311.904755, "error_rate":0.000000, "mean":0.000000, "var":0.000000}
  {"freq":312.169312, "error_rate":0.000000, "mean":0.000000, "var":0.000000}
  {"freq":312.500000, "error_rate":0.000000, "mean":0.000000, "var":0.000000}
  {"freq":312.830688, "error_rate":0.000000, "mean":0.000000, "var":0.000000}
  {"freq":313.095245, "error_rate":0.000000, "mean":0.000000, "var":0.000000}
  {"freq":313.333344, "error_rate":0.000000, "mean":0.000000, "var":0.000000}
  {"freq":313.492065, "error_rate":0.000000, "mean":0.000000, "var":0.000000}
  {"freq":313.802094, "error_rate":0.000000, "mean":0.000000, "var":0.000000}
  {"freq":313.988098, "error_rate":0.000000, "mean":0.000000, "var":0.000000}
  {"freq":314.236115, "error_rate":0.000000, "mean":0.000000, "var":0.000000}
  {"freq":314.583344, "error_rate":0.000000, "mean":0.000000, "var":0.000000}
  {"freq":314.814819, "error_rate":0.000000, "mean":0.000000, "var":0.000000}
  {"freq":315.000000, "error_rate":0.000000, "mean":0.000000, "var":0.000000}
  {"freq":315.217377, "error_rate":0.000000, "mean":0.000000, "var":0.000000}
  {"freq":315.476196, "error_rate":0.000000, "mean":0.000000, "var":0.000000}
  {"freq":315.705109, "error_rate":0.000000, "mean":0.000000, "var":0.000000}
  {"freq":315.972229, "error_rate":0.000000, "mean":0.000000, "var":0.000000}
  {"freq":316.287872, "error_rate":0.000000, "mean":0.000000, "var":0.000000}
  {"freq":316.576080, "error_rate":0.000000, "mean":0.000000, "var":0.000000}
  {"freq":316.666656, "error_rate":0.000000, "mean":0.000000, "var":0.000000}
  {"freq":316.964294, "error_rate":0.000000, "mean":0.000000, "var":0.000000}
  {"freq":317.307678, "error_rate":0.000000, "mean":0.000000, "var":0.000000}
  {"freq":317.500000, "error_rate":0.000000, "mean":0.000000, "var":0.000000}
  {"freq":317.708344, "error_rate":0.000000, "mean":0.000000, "var":0.000000}
  {"freq":317.934784, "error_rate":0.000000, "mean":0.000000, "var":0.000000}
  {"freq":318.181824, "error_rate":0.000000, "mean":0.000000, "var":0.000000}
  {"freq":318.452393, "error_rate":0.000000, "mean":0.000000, "var":0.000000}
  {"freq":318.750000, "error_rate":0.000000, "mean":0.000000, "var":0.000000}
  {"freq":318.965515, "error_rate":0.000000, "mean":0.000000, "var":0.000000}
  {"freq":319.196442, "error_rate":0.000000, "mean":0.000000, "var":0.000000}
  {"freq":319.444458, "error_rate":0.000000, "mean":0.000000, "var":0.000000}
  {"freq":319.711548, "error_rate":0.000000, "mean":0.000000, "var":0.000000}
  {"freq":320.000000, "error_rate":0.000000, "mean":0.000000, "var":0.000000}
  {"freq":320.312500, "error_rate":0.000000, "mean":0.000000, "var":0.000000}
  {"freq":320.512817, "error_rate":0.000000, "mean":0.000000, "var":0.000000}
  {"freq":320.652161, "error_rate":0.000000, "mean":0.000000, "var":0.000000}
  {"freq":321.022736, "error_rate":0.000000, "mean":0.000000, "var":0.000000}
  {"freq":321.180573, "error_rate":0.000000, "mean":0.000000, "var":0.000000}
  {"freq":321.428558, "error_rate":0.000000, "mean":0.000000, "var":0.000000}
  {"freq":321.759247, "error_rate":0.000000, "mean":0.000000, "var":0.000000}
  {"freq":321.969696, "error_rate":0.000000, "mean":0.000000, "var":0.000000}
  {"freq":322.198273, "error_rate":0.000000, "mean":0.000000, "var":0.000000}
  {"freq":322.500000, "error_rate":0.000000, "mean":0.000000, "var":0.000000}
  {"freq":322.727264, "error_rate":0.000000, "mean":0.000000, "var":0.000000}
  {"freq":322.916656, "error_rate":0.000000, "mean":0.000000, "var":0.000000}
  {"freq":323.275848, "error_rate":0.000000, "mean":0.000000, "var":0.000000}
  {"freq":323.412689, "error_rate":0.000000, "mean":0.000000, "var":0.000000}
  {"freq":323.660706, "error_rate":0.000000, "mean":0.000000, "var":0.000000}
  {"freq":324.074066, "error_rate":0.000000, "mean":0.000000, "var":0.000000}
  {"freq":324.275360, "error_rate":0.000000, "mean":0.000000, "var":0.000000}
  {"freq":324.404755, "error_rate":0.000000, "mean":0.000000, "var":0.000000}
  {"freq":324.652771, "error_rate":0.000000, "mean":0.000000, "var":0.000000}
  {"freq":325.000000, "error_rate":0.000000, "mean":0.000000, "var":0.000000}
  {"freq":325.320496, "error_rate":0.000000, "mean":0.000000, "var":0.000000}
  {"freq":325.520844, "error_rate":0.000000, "mean":0.000000, "var":0.000000}
  {"freq":325.757568, "error_rate":0.000000, "mean":0.000000, "var":0.000000}
  {"freq":326.086945, "error_rate":0.000000, "mean":0.000000, "var":0.000000}
  {"freq":326.250000, "error_rate":0.000000, "mean":0.000000, "var":0.000000}
  {"freq":326.562500, "error_rate":0.000000, "mean":0.000000, "var":0.000000}
  {"freq":326.704559, "error_rate":0.000000, "mean":0.000000, "var":0.000000}
  {"freq":326.923065, "error_rate":0.000000, "mean":0.000000, "var":0.000000}
  {"freq":327.160492, "error_rate":0.000000, "mean":0.000000, "var":0.000000}
  {"freq":327.586212, "error_rate":0.000000, "mean":0.000000, "var":0.000000}
  {"freq":327.651520, "error_rate":0.000000, "mean":0.000000, "var":0.000000}
  {"freq":328.000000, "error_rate":0.000000, "mean":0.000000, "var":0.000000}
  {"freq":328.333313, "error_rate":0.000000, "mean":0.000000, "var":0.000000}
  {"freq":328.525665, "error_rate":0.000000, "mean":0.000000, "var":0.000000}
  {"freq":328.703705, "error_rate":0.000000, "mean":0.000000, "var":0.000000}
  {"freq":329.023010, "error_rate":0.000000, "mean":0.000000, "var":0.000000}
  {"freq":329.326935, "error_rate":0.000000, "mean":0.000000, "var":0.000000}
  {"freq":329.545441, "error_rate":0.000000, "mean":0.000000, "var":0.000000}
  {"freq":329.741394, "error_rate":0.000000, "mean":0.000000, "var":0.000000}
  {"freq":330.000000, "error_rate":0.000000, "mean":0.000000, "var":0.000000}
  {"freq":330.246918, "error_rate":0.000000, "mean":0.000000, "var":0.000000}
  {"freq":330.459747, "error_rate":0.000000, "mean":0.000000, "var":0.000000}
  {"freq":330.729156, "error_rate":0.000000, "mean":0.000000, "var":0.000000}
  {"freq":331.018524, "error_rate":0.000000, "mean":0.000000, "var":0.000000}
  {"freq":331.250000, "error_rate":0.000000, "mean":0.000000, "var":0.000000}
  {"freq":331.521729, "error_rate":0.000000, "mean":0.000000, "var":0.000000}
  {"freq":331.730774, "error_rate":0.000000, "mean":0.000000, "var":0.000000}
  {"freq":332.031250, "error_rate":0.000000, "mean":0.000000, "var":0.000000}
  {"freq":332.175934, "error_rate":0.000000, "mean":0.000000, "var":0.000000}
  {"freq":332.500000, "error_rate":0.000000, "mean":0.000000, "var":0.000000}
  {"freq":332.812500, "error_rate":0.000000, "mean":0.000000, "var":0.000000}
  {"freq":332.932678, "error_rate":0.000000, "mean":0.000000, "var":0.000000}
  {"freq":333.333344, "error_rate":0.000000, "mean":0.000000, "var":0.000000}
  {"freq":333.593750, "error_rate":0.000000, "mean":0.000000, "var":0.000000}
  {"freq":333.806824, "error_rate":0.000000, "mean":0.000000, "var":0.000000}
  {"freq":334.090912, "error_rate":0.000000, "mean":0.000000, "var":0.000000}
  {"freq":334.239136, "error_rate":0.000000, "mean":0.000000, "var":0.000000}
  {"freq":334.523804, "error_rate":0.000000, "mean":0.000000, "var":0.000000}
  {"freq":334.821442, "error_rate":0.000000, "mean":0.000000, "var":0.000000}
  {"freq":335.000000, "error_rate":0.000000, "mean":0.000000, "var":0.000000}
  {"freq":335.227264, "error_rate":0.000000, "mean":0.000000, "var":0.000000}
  {"freq":335.416687, "error_rate":0.000000, "mean":0.000000, "var":0.000000}
  {"freq":335.714294, "error_rate":0.000000, "mean":0.000000, "var":0.000000}
  {"freq":335.937500, "error_rate":0.000000, "mean":0.000000, "var":0.000000}
  {"freq":336.309509, "error_rate":0.000000, "mean":0.000000, "var":0.000000}
  {"freq":336.538452, "error_rate":0.000000, "mean":0.000000, "var":0.000000}
  {"freq":336.805573, "error_rate":0.000000, "mean":0.000000, "var":0.000000}
  {"freq":336.956512, "error_rate":0.000000, "mean":0.000000, "var":0.000000}
  {"freq":337.301605, "error_rate":0.000000, "mean":0.000000, "var":0.000000}
  {"freq":337.500000, "error_rate":0.000000, "mean":0.000000, "var":0.000000}
  {"freq":337.719299, "error_rate":0.000000, "mean":0.000000, "var":0.000000}
  {"freq":337.962952, "error_rate":0.000000, "mean":0.000000, "var":0.000000}
  {"freq":338.333313, "error_rate":0.000000, "mean":0.000000, "var":0.000000}
  {"freq":338.541656, "error_rate":0.000000, "mean":0.000000, "var":0.000000}
  {"freq":338.815796, "error_rate":0.000000, "mean":0.000000, "var":0.000000}
  {"freq":338.942322, "error_rate":0.000000, "mean":0.000000, "var":0.000000}
  {"freq":339.285706, "error_rate":0.000000, "mean":0.000000, "var":0.000000}
  {"freq":339.583313, "error_rate":0.000000, "mean":0.000000, "var":0.000000}
  {"freq":339.673920, "error_rate":0.000000, "mean":0.000000, "var":0.000000}
  {"freq":340.000000, "error_rate":0.000000, "mean":0.000000, "var":0.000000}
  {"freq":340.277771, "error_rate":0.000000, "mean":0.000000, "var":0.000000}
  {"freq":340.579712, "error_rate":0.000000, "mean":0.000000, "var":0.000000}
  {"freq":340.773834, "error_rate":0.000000, "mean":0.000000, "var":0.000000}
  {"freq":340.909088, "error_rate":0.000000, "mean":0.000000, "var":0.000000}
  {"freq":341.346161, "error_rate":0.000000, "mean":0.000000, "var":0.000000}
  {"freq":341.517853, "error_rate":0.000000, "mean":0.000000, "var":0.000000}
  {"freq":341.666687, "error_rate":0.000000, "mean":0.000000, "var":0.000000}
  {"freq":342.013885, "error_rate":0.000000, "mean":0.000000, "var":0.000000}
  {"freq":342.261902, "error_rate":0.000000, "mean":0.000000, "var":0.000000}
  {"freq":342.592590, "error_rate":0.000000, "mean":0.000000, "var":0.000000}
  {"freq":342.803009, "error_rate":0.000000, "mean":0.000000, "var":0.000000}
  {"freq":342.948730, "error_rate":0.000000, "mean":0.000000, "var":0.000000}
  {"freq":343.253967, "error_rate":0.000000, "mean":0.000000, "var":0.000000}
  {"freq":343.421051, "error_rate":0.000000, "mean":0.000000, "var":0.000000}
  {"freq":343.750000, "error_rate":0.000000, "mean":0.000000, "var":0.000000}
  {"freq":344.047607, "error_rate":0.000000, "mean":0.000000, "var":0.000000}
  {"freq":344.298248, "error_rate":0.000000, "mean":0.000000, "var":0.000000}
  {"freq":344.551270, "error_rate":0.000000, "mean":0.000000, "var":0.000000}
  {"freq":344.696991, "error_rate":0.000000, "mean":0.000000, "var":0.000000}
  {"freq":345.000000, "error_rate":0.000000, "mean":0.000000, "var":0.000000}
  {"freq":345.238098, "error_rate":0.000000, "mean":0.000000, "var":0.000000}
  {"freq":345.486115, "error_rate":0.000000, "mean":0.000000, "var":0.000000}
  {"freq":345.833313, "error_rate":0.000000, "mean":0.000000, "var":0.000000}
  {"freq":346.014496, "error_rate":0.000000, "mean":0.000000, "var":0.000000}
  {"freq":346.153839, "error_rate":0.000000, "mean":0.000000, "var":0.000000}
  {"freq":346.590912, "error_rate":0.000000, "mean":0.000000, "var":0.000000}
  {"freq":346.666687, "error_rate":0.000000, "mean":0.000000, "var":0.000000}
  {"freq":347.039459, "error_rate":0.000000, "mean":0.000000, "var":0.000000}
  {"freq":347.222229, "error_rate":0.000000, "mean":0.000000, "var":0.000000}
  {"freq":347.500000, "error_rate":0.000000, "mean":0.000000, "var":0.000000}
  {"freq":347.826080, "error_rate":0.000000, "mean":0.000000, "var":0.000000}
  {"freq":347.916687, "error_rate":0.000000, "mean":0.000000, "var":0.000000}
  {"freq":348.214294, "error_rate":0.000000, "mean":0.000000, "var":0.000000}
  {"freq":348.557678, "error_rate":0.000000, "mean":0.000000, "var":0.000000}
  {"freq":348.684204, "error_rate":0.000000, "mean":0.000000, "var":0.000000}
  {"freq":348.958344, "error_rate":0.000000, "mean":0.000000, "var":0.000000}
  {"freq":349.206360, "error_rate":0.000000, "mean":0.000000, "var":0.000000}
  {"freq":349.431824, "error_rate":0.000000, "mean":0.000000, "var":0.000000}
  {"freq":349.702393, "error_rate":0.000000, "mean":0.000000, "var":0.000000}
  {"freq":350.000000, "error_rate":0.000000, "mean":0.000000, "var":0.000000}
  {"freq":350.328949, "error_rate":0.000000, "mean":0.000000, "var":0.000000}
  {"freq":350.543488, "error_rate":0.000000, "mean":0.000000, "var":0.000000}
  {"freq":350.694458, "error_rate":0.000000, "mean":0.000000, "var":0.000000}
  {"freq":350.961548, "error_rate":0.000000, "mean":0.000000, "var":0.000000}
  {"freq":351.190491, "error_rate":0.000000, "mean":0.000000, "var":0.000000}
  {"freq":351.562500, "error_rate":0.000000, "mean":0.000000, "var":0.000000}
  {"freq":351.666687, "error_rate":0.000000, "mean":0.000000, "var":0.000000}
  {"freq":351.973694, "error_rate":0.020000, "mean":308.716644, "var":0.030621}
  {"freq":352.272736, "error_rate":0.000000, "mean":0.000000, "var":0.000000}
  {"freq":352.500000, "error_rate":0.000000, "mean":0.000000, "var":0.000000}
  {"freq":352.678558, "error_rate":0.000000, "mean":0.000000, "var":0.000000}
  {"freq":353.070190, "error_rate":0.000000, "mean":0.000000, "var":0.000000}
  {"freq":353.260864, "error_rate":0.000000, "mean":0.000000, "var":0.000000}
  {"freq":353.571442, "error_rate":0.000000, "mean":0.000000, "var":0.000000}
  {"freq":353.693176, "error_rate":0.010000, "mean":308.711914, "var":0.000000}
  {"freq":353.947357, "error_rate":0.020000, "mean":308.719025, "var":0.019529}
  {"freq":354.166656, "error_rate":0.000000, "mean":0.000000, "var":0.000000}
  {"freq":354.567322, "error_rate":0.000000, "mean":0.000000, "var":0.000000}
  {"freq":354.687500, "error_rate":0.010000, "mean":308.712097, "var":0.000000}
  {"freq":355.000000, "error_rate":0.050000, "mean":308.680511, "var":0.025684}
  {"freq":355.263153, "error_rate":0.130000, "mean":308.729126, "var":0.017683}
  {"freq":355.555542, "error_rate":0.100000, "mean":308.708923, "var":0.018153}
  {"freq":355.769226, "error_rate":0.100000, "mean":308.745972, "var":0.032779}
  {"freq":355.978271, "error_rate":0.120000, "mean":308.796570, "var":0.037645}
  {"freq":356.250000, "error_rate":0.160000, "mean":308.710358, "var":0.023611}
  {"freq":356.481476, "error_rate":0.150000, "mean":308.645386, "var":0.033451}
  {"freq":356.770844, "error_rate":0.130000, "mean":308.678406, "var":0.016668}
  {"freq":356.907898, "error_rate":0.320000, "mean":308.746124, "var":0.019411}
  {"freq":357.336945, "error_rate":0.270000, "mean":308.710480, "var":0.039895}
  {"freq":357.500000, "error_rate":0.350000, "mean":1239.793701, "var":917.667603}
  {"freq":357.812500, "error_rate":0.330000, "mean":308.688751, "var":0.031969}