# Created by Octave 6.4.0, Wed Feb 09 12:24:21 2022 GMT <unknown@glomet-fixe>
# name: a
# type: scalar struct
# ndims: 2
 1 1
# length: 3
# name: freq_min
# type: scalar
200


# name: freq_max
# type: scalar
368


# name: pas
# type: scalar
0.25




# name: ans
# type: scalar
0


# name: cmd_fpga
# type: sq_string
# elements: 1
# length: 100
ssh root@192.168.1.23 /home/fpga/test_scal/test_scal/bin/ARM/Debug/test_scal.out -json settings.json


# name: filename
# type: sq_string
# elements: 1
# length: 8
out.json


# name: fin
# type: scalar
7


# name: i
# type: scalar
73


# name: input_file
# type: sq_string
# elements: 1
# length: 13
settings.json


# name: it
# type: scalar
50


# name: j
# type: scalar
50


# name: json_str
# type: sq_string
# elements: 1
# length: 6437
{
 "output":
 [
  {"freq":350.000000, "error_rate":0.000000, "mean":0.000000e+00, "var":0.000000e+00},
  {"freq":350.328949, "error_rate":0.000000, "mean":0.000000e+00, "var":0.000000e+00},
  {"freq":350.543488, "error_rate":0.000000, "mean":0.000000e+00, "var":0.000000e+00},
  {"freq":350.694458, "error_rate":0.000000, "mean":0.000000e+00, "var":0.000000e+00},
  {"freq":350.961548, "error_rate":0.000000, "mean":0.000000e+00, "var":0.000000e+00},
  {"freq":351.190491, "error_rate":0.000000, "mean":0.000000e+00, "var":0.000000e+00},
  {"freq":351.562500, "error_rate":0.000000, "mean":0.000000e+00, "var":0.000000e+00},
  {"freq":351.666687, "error_rate":0.010000, "mean":-2.627958e-07, "var":0.000000e+00},
  {"freq":351.973694, "error_rate":0.000000, "mean":0.000000e+00, "var":0.000000e+00},
  {"freq":352.272736, "error_rate":0.000000, "mean":0.000000e+00, "var":0.000000e+00},
  {"freq":352.500000, "error_rate":0.000000, "mean":0.000000e+00, "var":0.000000e+00},
  {"freq":352.678558, "error_rate":0.000000, "mean":0.000000e+00, "var":0.000000e+00},
  {"freq":353.070190, "error_rate":0.010000, "mean":-2.627958e-07, "var":0.000000e+00},
  {"freq":353.260864, "error_rate":0.010000, "mean":-6.569895e-08, "var":0.000000e+00},
  {"freq":353.571442, "error_rate":0.000000, "mean":0.000000e+00, "var":0.000000e+00},
  {"freq":353.693176, "error_rate":0.060000, "mean":1.532975e-07, "var":2.177153e-07},
  {"freq":353.947357, "error_rate":0.050000, "mean":-1.445377e-07, "var":3.595600e-07},
  {"freq":354.166656, "error_rate":0.030000, "mean":-1.751972e-07, "var":1.892346e-07},
  {"freq":354.567322, "error_rate":0.030000, "mean":-2.846955e-07, "var":3.223541e-07},
  {"freq":354.687500, "error_rate":0.090000, "mean":-2.335963e-07, "var":1.208836e-07},
  {"freq":355.000000, "error_rate":0.130000, "mean":4.245163e-07, "var":2.179123e-07},
  {"freq":355.263153, "error_rate":0.260000, "mean":1.768818e-07, "var":1.420355e-07},
  {"freq":355.555542, "error_rate":0.290000, "mean":4.757510e-08, "var":1.181485e-07},
  {"freq":355.769226, "error_rate":0.210000, "mean":2.002254e-07, "var":1.463049e-07},
  {"freq":355.978271, "error_rate":0.250000, "mean":1.839570e-08, "var":1.109683e-07},
  {"freq":356.250000, "error_rate":0.210000, "mean":1.595546e-07, "var":1.710458e-07},
  {"freq":356.481476, "error_rate":0.410000, "mean":8.973515e-08, "var":9.329173e-08},
  {"freq":356.770844, "error_rate":0.310000, "mean":1.653070e-07, "var":1.221829e-07},
  {"freq":356.907898, "error_rate":3.390000, "mean":3.042693e-08, "var":3.402445e-08},
  {"freq":357.336945, "error_rate":2.940000, "mean":-2.815669e-08, "var":2.915008e-08},
  {"freq":357.500000, "error_rate":2.500000, "mean":1.865850e-08, "var":3.586449e-08},
  {"freq":357.812500, "error_rate":3.560000, "mean":-5.721010e-09, "var":3.470489e-08},
  {"freq":357.954559, "error_rate":18.719999, "mean":8.387881e-08, "var":1.557940e-08},
  {"freq":358.173065, "error_rate":10.160000, "mean":-1.503442e-07, "var":1.726528e-08},
  {"freq":358.552643, "error_rate":19.889999, "mean":-1.213891e-07, "var":1.860543e-08},
  {"freq":358.695648, "error_rate":26.550001, "mean":-2.292912e-07, "var":1.296279e-08},
  {"freq":358.974335, "error_rate":5.670000, "mean":-5.851500e-08, "var":2.736113e-08},
  {"freq":359.210541, "error_rate":24.529999, "mean":7.426979e-08, "var":1.568969e-08},
  {"freq":359.523804, "error_rate":63.559998, "mean":-1.487843e-07, "var":9.536809e-09},
  {"freq":359.848480, "error_rate":47.009998, "mean":1.479163e-07, "var":1.084412e-08},
  {"freq":360.000000, "error_rate":64.400002, "mean":3.609356e-07, "var":1.057010e-08},
  {"freq":360.197357, "error_rate":64.300003, "mean":5.999787e-08, "var":8.544625e-09},
  {"freq":360.576935, "error_rate":65.169998, "mean":3.969646e-07, "var":1.126491e-08},
  {"freq":360.795441, "error_rate":86.389999, "mean":1.637261e-07, "var":7.763551e-09},
  {"freq":360.937500, "error_rate":81.410004, "mean":3.876623e-07, "var":7.092724e-09},
  {"freq":361.250000, "error_rate":86.330002, "mean":2.281987e-07, "var":7.673598e-09},
  {"freq":361.413055, "error_rate":94.830002, "mean":1.934786e-07, "var":9.348300e-09},
  {"freq":361.842102, "error_rate":98.349998, "mean":-9.610412e-08, "var":8.134132e-09},
  {"freq":361.979156, "error_rate":99.349998, "mean":3.833502e-07, "var":5.587555e-09},
  {"freq":362.318817, "error_rate":99.229996, "mean":1.920181e-07, "var":7.455596e-09},
  {"freq":362.500000, "error_rate":98.430000, "mean":9.173395e-08, "var":7.634504e-09},
  {"freq":362.847198, "error_rate":99.980003, "mean":2.922870e-07, "var":4.812555e-09},
  {"freq":363.095245, "error_rate":99.650002, "mean":3.591732e-07, "var":7.307283e-09},
  {"freq":363.333313, "error_rate":99.720001, "mean":1.443562e-07, "var":6.098696e-09},
  {"freq":363.425903, "error_rate":99.330002, "mean":4.885602e-08, "var":9.393949e-09},
  {"freq":363.782043, "error_rate":99.720001, "mean":1.492209e-07, "var":1.206532e-08},
  {"freq":364.035065, "error_rate":99.980003, "mean":2.987838e-07, "var":1.112518e-08},
  {"freq":364.182678, "error_rate":99.959999, "mean":2.263849e-07, "var":1.187039e-08},
  {"freq":364.583344, "error_rate":100.000000, "mean":3.171824e-07, "var":1.337040e-08},
  {"freq":364.772736, "error_rate":99.989998, "mean":3.127163e-07, "var":1.640537e-08},
  {"freq":365.000000, "error_rate":99.989998, "mean":3.112847e-07, "var":1.505698e-08},
  {"freq":365.277771, "error_rate":99.980003, "mean":3.907754e-07, "var":2.507952e-08},
  {"freq":365.530304, "error_rate":100.000000, "mean":-2.837809e-05, "var":2.881498e-05},
  {"freq":365.740753, "error_rate":100.000000, "mean":4.293279e-07, "var":2.613853e-08},
  {"freq":366.071442, "error_rate":100.000000, "mean":4.129845e-07, "var":2.559846e-08},
  {"freq":366.228088, "error_rate":100.000000, "mean":1.462492e-06, "var":7.387113e-08},
  {"freq":366.477264, "error_rate":100.000000, "mean":1.550589e-06, "var":7.297505e-08},
  {"freq":366.847839, "error_rate":100.000000, "mean":2.395929e-06, "var":1.050824e-07},
  {"freq":367.063507, "error_rate":100.000000, "mean":1.824657e-06, "var":1.277447e-07},
  {"freq":367.187500, "error_rate":100.000000, "mean":6.593348e-07, "var":4.298006e-08},
  {"freq":367.500000, "error_rate":99.940002, "mean":1.159653e-06, "var":1.161162e-07},
  {"freq":367.788452, "error_rate":100.000000, "mean":5.902509e-06, "var":1.443307e-07},
  {"freq":368.055542, "error_rate":99.959999, "mean":8.875170e-06, "var":2.692885e-07},
 ]
}


# name: lmean
# type: matrix
# rows: 73
# columns: 50
 -Inf -Inf -Inf -Inf -Inf -Inf -Inf -Inf -Inf -Inf -Inf -Inf -Inf -Inf -Inf -Inf -Inf -Inf -Inf -Inf -Inf -Inf -Inf -Inf -Inf -Inf -Inf -Inf -Inf -Inf -Inf -Inf -Inf -Inf -Inf -Inf -Inf -Inf -Inf -Inf -Inf -Inf -Inf -Inf -Inf -Inf -Inf -Inf -Inf -Inf
 -Inf -Inf -Inf -Inf -Inf -Inf -Inf -Inf -Inf -Inf -Inf -Inf -Inf -Inf -Inf -Inf -Inf -Inf -Inf -Inf -Inf -Inf -Inf -Inf -Inf -Inf -Inf -Inf -Inf -Inf -Inf -Inf -Inf -Inf -Inf -Inf -Inf -Inf -Inf -Inf -Inf -Inf -Inf -Inf -Inf -Inf -Inf -Inf -Inf -Inf
 -Inf -Inf -Inf -Inf -Inf -Inf -Inf -Inf -Inf -Inf -Inf -Inf -Inf -Inf -Inf -Inf -Inf -Inf -Inf -Inf -Inf -Inf -Inf -Inf -Inf -Inf -6.881411575611093 -Inf -Inf -Inf -Inf -Inf -Inf -Inf -Inf -Inf -Inf -Inf -Inf -Inf -Inf -Inf -6.2281990985600375 -Inf -Inf -Inf -Inf -Inf -Inf -Inf
 -Inf -Inf -Inf -Inf -Inf -Inf -Inf -Inf -Inf -Inf -Inf -Inf -Inf -Inf -Inf -Inf -Inf -Inf -Inf -Inf -Inf -Inf -Inf -Inf -Inf -Inf -Inf -Inf -Inf -Inf -Inf -Inf -Inf -Inf -Inf -Inf -Inf -Inf -Inf -Inf -Inf -Inf -Inf -Inf -Inf -Inf -Inf -Inf -Inf -Inf
 -Inf -Inf -Inf -Inf -Inf -Inf -Inf -Inf -Inf -Inf -Inf -Inf -Inf -Inf -Inf -Inf -Inf -Inf -Inf -Inf -Inf -Inf -Inf -Inf -Inf -Inf -Inf -Inf -Inf -Inf -Inf -Inf -Inf -Inf -Inf -Inf -Inf -Inf -7.1824415712750742 -Inf -Inf -Inf -Inf -Inf -Inf -Inf -Inf -Inf -Inf -Inf
 -Inf -Inf -Inf -Inf -Inf -Inf -6.5803815799471117 -Inf -Inf -Inf -Inf -Inf -Inf -Inf -Inf -Inf -Inf -Inf -Inf -Inf -Inf -Inf -Inf -Inf -Inf -Inf -Inf -Inf -Inf -Inf -Inf -Inf -Inf -Inf -Inf -Inf -Inf -Inf -Inf -Inf -Inf -Inf -6.5803815799471117 -Inf -Inf -Inf -Inf -Inf -Inf -Inf
 -Inf -Inf -Inf -Inf -Inf -Inf -Inf -Inf -Inf -Inf -Inf -Inf -Inf -Inf -Inf -Inf -Inf -Inf -Inf -Inf -Inf -Inf -Inf -Inf -Inf -Inf -Inf -Inf -Inf -Inf -Inf -Inf -Inf -Inf -Inf -Inf -Inf -Inf -Inf -Inf -Inf -Inf -Inf -Inf -Inf -Inf -Inf -Inf -Inf -Inf
 -Inf -Inf -Inf -Inf -Inf -Inf -Inf -5.881411575611093 -Inf -6.5803815799471117 -6.2281990985600375 -Inf -Inf -Inf -Inf -Inf -Inf -Inf -Inf -Inf -Inf -Inf -Inf -6.2793515842831304 -Inf -Inf -Inf -Inf -Inf -Inf -Inf -Inf -Inf -Inf -Inf -Inf -Inf -Inf -Inf -6.5803815799471117 -Inf -Inf -Inf -Inf -Inf -Inf -Inf -Inf -Inf -6.5803815799471117
 -Inf -Inf -Inf -6.2281990985600375 -Inf -Inf -6.3373435784777605 -Inf -Inf -Inf -Inf -Inf -Inf -Inf -Inf -7.1824415712750742 -Inf -Inf -6.2281990985600375 -6.6383735741417418 -Inf -Inf -Inf -Inf -6.881411575611093 -Inf -Inf -6.1544128476748305 -6.1032603252274491 -Inf -Inf -Inf -6.5803815799471117 -Inf -6.2793515842831304 -Inf -Inf -Inf -6.2793515842831304 -Inf -Inf -Inf -6.5803815799471117 -Inf -6.5803815799471117 -5.881411575611093 -6.2793515842831304 -Inf -6.881411575611093 -Inf
 -Inf -Inf -Inf -Inf -Inf -Inf -Inf -Inf -Inf -Inf -6.2281990985600375 -Inf -Inf -6.5803815799471117 -6.5803815799471117 -Inf -Inf -Inf -Inf -Inf -Inf -Inf -Inf -6.2793515842831304 -Inf -Inf -6.5803815799471117 -Inf -Inf -Inf -Inf -6.5803815799471117 -6.2793515842831304 -Inf -Inf -Inf -Inf -Inf -Inf -Inf -6.5803815799471117 -Inf -Inf -5.881411575611093 -Inf -Inf -Inf -Inf -Inf -Inf
 -Inf -6.5803815799471117 -Inf -Inf -7.0063503783231154 -Inf -Inf -Inf -5.881411575611093 -6.6383735741417418 -Inf -Inf -Inf -Inf -Inf -Inf -Inf -7.1824415712750742 -Inf -7.1824415712750742 -Inf -Inf -7.1824415712750742 -5.881411575611093 -Inf -Inf -6.5803815799471117 -Inf -6.881411575611093 -Inf -Inf -Inf -Inf -Inf -Inf -7.1824415712750742 -Inf -6.5803815799471117 -6.705320206382563 -5.9783216712488034 -Inf -Inf -Inf -Inf -Inf -Inf -Inf -Inf -Inf -Inf
 -6.6181702309779533 -Inf -Inf -5.881411575611093 -Inf -Inf -Inf -Inf -6.5803815799471117 -Inf -Inf -Inf -Inf -Inf -Inf -Inf -Inf -Inf -Inf -6.7564728390027931 -Inf -Inf -Inf -Inf -6.5803815799471117 -Inf -Inf -Inf -Inf -6.5803815799471117 -Inf -7.1824415712750742 -Inf -6.2281990985600375 -Inf -Inf -6.2281990985600375 -Inf -6.5803815799471117 -Inf -Inf -Inf -Inf -Inf -Inf -Inf -Inf -Inf -6.4042903208914304 -Inf
 -6.5803815799471117 -Inf -6.5803815799471117 -13.944289957651359 -7.0855315979292497 -6.2793515842831304 -6.2047179833819417 -6.5803815799471117 -6.5803815799471117 -6.6181700506950882 -6.1032603252274491 -6.5803815799471117 -6.784501496499324 -5.881411575611093 -6.3373435784777605 -7.0575028842445651 -7.1824415712750742 -6.5803815799471117 -6.4420789118279753 -Inf -7.1824415051713615 -6.1971647939042036 -6.1738414578399698 -6.5803815799471117 -7.1824415712750742 -6.5803815799471117 -6.4834716330427771 -6.7053204267282878 -7.1824415712750742 -Inf -6.4500478481763945 -6.5803815799471117 -Inf -7.1824416373787958 -6.2530226261185113 -Inf -6.1824415712750742 -5.881411575611093 -7.1824415712750742 -Inf -7.1824415712750742 -6.4834716330427771 -6.5803815799471117 -6.5134347903164986 -6.4554428433388118 -6.2793515842831304 -6.4042903208914304 -7.0855315979292497 -6.6181702309779533 -6.5803815799471117
 -6.5803815799471117 -Inf -Inf -6.5803815799471117 -6.881411575611093 -7.4834716330427771 -Inf -6.2793515842831304 -7.1824415712750742 -Inf -5.881411575611093 -7.1824415712750742 -6.4420789118279753 -Inf -6.705320206382563 -6.5803815799471117 -7.1824415712750742 -7.1824415712750742 -6.2404335276961485 -7.1824415712750742 -6.5803815799471117 -Inf -Inf -Inf -6.5803815799471117 -6.5803815799471117 -6.5803815799471117 -Inf -6.2281990985600375 -6.881411575611093 -Inf -7.0855315979292497 -6.2281990985600375 -Inf -6.5803815799471117 -Inf -Inf -7.6595628259947359 -6.5803815799471117 -Inf -6.7431089074919566 -6.784501496499324 -Inf -Inf -6.4622822521301373 -Inf -6.5803815799471117 -6.2793515842831304 -Inf -7.1824415712750742
 -Inf -6.5803815799471117 -6.7564728390027931 -7.1824415051713615 -7.9605922267256695 -Inf -6.2793515842831304 -6.4834716330427771 -Inf -6.2281990985600375 -Inf -Inf -6.5803815799471117 -Inf -6.5134347903164986 -Inf -Inf -7.1824415712750742 -5.9783216712488034 -6.2281990985600375 -7.1824415712750742 -Inf -6.5803815799471117 -6.5803815799471117 -6.784501496499324 -6.2047179833819417 -6.5803815799471117 -6.5803815799471117 -5.9519927082236128 -6.5803815799471117 -7.1824415712750742 -6.5803815799471117 -Inf -Inf -7.1824415712750742 -6.5292290207754444 -Inf -6.5803815799471117 -6.3695282909057447 -6.9605930199699149 -Inf -6.5803815799471117 -6.5456193974143861 -6.2793515842831304 -6.2793515842831304 -6.784501496499324 -Inf -7.1824415712750742 -Inf -Inf
 -7.2404336032432628 -6.784501496499324 -6.4834716330427771 -6.881411575611093 -6.3865615935932309 -6.545619549961426 -7.4834715008353427 -7.4042903208914304 -6.3865615935932309 -7.6084102374436426 -6.3585328303307547 -6.4227737984373157 -6.265987652772294 -6.7564728390027931 -6.3132098783429029 -6.5134347903164986 -6.5569005884718914 -6.2978350330882655 -7.1032604354003253 -6.8302591633365877 -6.9394033809379794 -6.6383735741417418 -6.4364750127376675 -6.6705581848716937 -6.2978350330882655 -7.006350422392269 -7.1824415051713615 -6.522389570997194 -6.5803815799471117 -6.1410489161639941 -6.3073803299179465 -6.6295996158380364 -6.4227737984373157 -7.5504184006388151 -7.0063502901848205 -6.3695282909057447 -6.5803815799471117 -7.0575028346667743 -6.1032603252274491 -7.0063502901848205 -7.5803817452064362 -6.6595628259947359 -7.7265093512105603 -6.5389888647417429 -6.5012002788130587 -6.6026579920539792 -6.881411575611093 -6.6295996158380364 -6.705320206382563 -6.8144649276313256
 -6.4042903208914304 -6.2530226261185113 -6.3531378106854781 -6.3743270901691291 -6.3695281892077125 -7.1824416373787958 -6.3628976056860616 -Inf -6.3373435784777605 -6.6084102374436426 -6.0240790699987521 -6.5540526995515753 -7.1824415712750742 -6.4042903208914304 -6.2281990985600375 -6.5134347903164986 -6.4042903208914304 -7.0063502901848205 -6.4042903208914304 -6.1824415712750742 -6.8302591633365877 -6.6705581848716937 -6.2793515842831304 -6.9394033809379794 -6.7564728390027931 -6.5988649425300068 -7.784501496499324 -6.7352834454989834 -6.036313535596836 -6.5456193974143861 -6.7487860625236502 -6.6595628259947359 -6.2281990985600375 -7.4834716330427771 -6.5803815799471117 -7.4042902107185817 -6.5803815799471117 -6.7053204267282878 -6.6084104137202315 -6.1612523194220792 -6.881411575611093 -6.881411575611093 -6.9394033809379794 -7.1154947533142971 -6.3808092772290559 -6.5196836964823817 -6.881411575611093 -6.881411575611093 -6.8302591633365877 -6.8400188604057242
 -6.4420789118279753 -7.0063503783231154 -6.6383735741417418 -5.881411575611093 -6.5803815799471117 -6.5292290207754444 -6.2281990985600375 -7.1824415712750742 -Inf -6.881411575611093 -Inf -6.4042903208914304 -6.2793515842831304 -Inf -6.5196836964823817 -6.4420789118279753 -6.2793515842831304 -6.2793515842831304 -6.6772916755848222 -6.1738414578399698 -6.2281990985600375 -6.5803815799471117 -6.5803815799471117 -6.4042903208914304 -Inf -6.6261391072320759 -Inf -Inf -7.1824415712750742 -6.2793515842831304 -6.6705581848716937 -6.4420789118279753 -5.881411575611093 -6.881411575611093 -Inf -6.881411575611093 -7.1824415712750742 -6.6383735741417418 -6.705320206382563 -6.2281990985600375 -6.881411575611093 -6.4042903208914304 -6.5803815799471117 -6.881411575611093 -6.5803815799471117 -6.4042903208914304 -6.6084102374436426 -Inf -6.2047179833819417 -6.7564728390027931
 -6.6084102374436426 -6.6026579920539792 -6.881411575611093 -6.7053204267282878 -6.784501496499324 -6.3296567199902416 -7.1032603252274491 -6.881411575611093 -7.0063503783231154 -6.7431089074919566 -6.6125662124695026 -6.2793515842831304 -6.693421227249746 -7.2445895542974448 -7.5504184006388151 -6.6383735741417418 -6.5626528526489123 -7.1366841600388664 -7.784501496499324 -7.223834243212556 -7.2915859840398163 -7.5346241389642268 -6.5670175683105594 -6.1824415712750742 -6.971588180535675 -7.6595628259947359 -6.5651415564044155 -6.6910799733978203 -6.6818391685187466 -6.4042903208914304 -6.6705581848716937 -6.7722672530831991 -6.7614363155203101 -6.4165247489782784 -6.7238036791383067 -6.7387440323801329 -6.6851169605142697 -6.4834716330427771 -6.5803815799471117 -6.7238036791383067 -6.9394033809379794 -6.6705581848716937 -6.6181700506950882 -6.695774955538063 -6.4115895652349399 -6.6541677084180346 -6.9394033809379794 -7.784501496499324 -7.1824415051713615 -6.5456193974143861
 -7.6217742155275516 -6.5926160646942886 -6.4291139629432754 -7.8814112450926315 -6.4727477257315691 -6.5803815799471117 -7.3207442198635704 -8.1824418356900228 -7.0063503783231154 -6.7265095825734917 -6.5941699177421977 -6.9953549609697889 -6.3612557323196288 -7.24938832785383 -7.4834715008353427 -6.881411575611093 -6.881411575611093 -6.5196838401861248 -7.1824415712750742 -6.5684823298486004 -6.881411575611093 -6.7053204267282878 -7.1312890414828347 -6.5346241389642268 -6.6772916755848222 -7.0684981935437312 -6.7510777214260909 -6.9551977040820159 -6.7564728390027931 -6.5988649425300068 -7.5626526940000049 -6.9135963861050458 -6.8144649276313256 -6.8356539858948526 -6.971588180535675 -6.3373435784777605 -7.1824416373787958 -7.4456831382571096 -7.4254795869095105 -6.3695282909057447 -6.4291139629432754 -6.4500478481763945 -7.1824416373787958 -6.4981948579513409 -Inf -6.6295996158380364 -6.4464879804500539 -6.5078309890720263 -6.5292290207754444 -6.6315340404222622
 -6.8400188604057242 -6.6306867156542229 -6.9036879877179604 -7.393294862223291 -6.7992249903816662 -7.1078078590413183 -7.5248640934483877 -6.3487730767729822 -6.6683366895947502 -6.8088609847360075 -7.8192635586893999 -7.0777063010238681 -7.0732971459191525 -6.5248642388765372 -7.0575027850889889 -6.9483582550688574 -6.5292290207754444 -7.3865613820613678 -6.6181700506950882 -6.7281832441795917 -6.960592623347611 -7.3421424949360254 -8.1824416373787958 -6.6125663904410645 -6.3717611062867343 -6.4244937122260444 -7.2549923105368377 -6.881411575611093 -7.3073802417796614 -6.4834716330427771 -6.4355480590198937 -6.5495676642264558 -6.6541677084180346 -8.182441372963968 -6.5292290207754444 -6.974165518675143 -7.0390194992079662 -7.0511626796283524 -6.9016148515265314 -6.784501496499324 -6.5961759083374938 -7.0575028842445651 -14.449439752606699 -6.5684823298486004 -6.8234197112630603 -6.4886112144609562 -7.5346242876976337 -6.6556324877016326 -6.4227737984373157 -6.3721056296505392
 -6.109334514836366 -6.3662002939906754 -6.1339291530553304 -6.0321037918654792 -6.4198025351451111 -6.5651417159651206 -6.1345180633559124 -6.5540526995515753 -6.8100556971225696 -6.4042904310643065 -6.3585328303307547 -6.6498029754848371 -6.2606021994773995 -6.5504184006388151 -6.5239002481789505 -6.3214530331236016 -6.3276563270450668 -6.1432478552500651 -6.4342535678773443 -6.4756463356652283 -6.2354983061792586 -6.2213596476341495 -6.3285696201740551 -6.8144649276313256 -6.4960608109007101 -6.8277267089618379 -6.1553833629417394 -6.1705423533351267 -6.5186359242700354 -6.5178892441872307 -6.3171401451725302 -6.4586480713523216 -6.5027768182853141 -6.109334514836366 -7.0063502020465442 -6.3639958138916368 -6.705320206382563 -6.2845528257547603 -6.4420789118279753 -6.2674523341846191 -6.54416942051341 -6.475646205818629 -8.136684398012358 -6.075231632613324 -6.325863808421861 -6.2998271905078749 -6.392391124390528 -6.9685616411571445 -6.545619549961426 -6.7523168509014715
 -6.3425447607859908 -6.8234197112630603 -6.5760603010658558 -7.7417495408672652 -6.7564728390027931 -6.881411575611093 -7.0467789934592879 -7.914835053462518 -Inf -7.3005408213808378 -6.652932202025009 -7.5223897155990791 -8.1524781143312257 -6.7301439586072567 -6.7588396752303241 -6.6895261201975966 -6.5540526995515753 -6.4042903208914304 -7.1971648622873596 -6.986146956178251 -6.2793515842831304 -6.5803815799471117 -7.0411124037888895 -14.023471066175553 -7.2251935767698479 -6.8978020299360239 -7.0063503783231154 -6.9291844265854072 -6.212404865477934 -6.5651415564044155 -7.2654158515686991 -7.6448395757844017 -7.6410793955118299 -7.2581622694742123 -7.7845025541599275 -7.0498161068956424 -7.0896875561749368 -6.8989024481286592 -6.881411575611093 -6.9161735716974562 -6.5252263605302678 -7.451286978001546 -6.8038066757324227 -6.3221035533068877 -7.3328275144350874 -6.8636828483128935 -7.0001013761631343 -6.7899644122829654 -6.784501496499324 -7.3226202901790911
 -6.6595628259947359 -6.4655599876460679 -7.7660180687707419 -7.7564725911139236 -6.4712371288841872 -6.6785861373048716 -6.4586480713523216 -6.6644153399302244 -6.6675318474767398 -6.9357693260719842 -6.5882069475062135 -6.7564728390027931 -7.0176313782953734 -6.6383735741417418 -6.7324725306133573 -6.4227737984373157 -6.6900803993865123 -6.6181702309779533 -6.8446888668486467 -6.9248773215793316 -6.6142398740068842 -6.6509625181369518 -7.2616226190115922 -7.182441703482529 -6.5186360676274981 -6.7053204267282878 -6.7223536602611063 -6.9675976345516668 -6.881411575611093 -6.8929933141669064 -7.410920864196135 -6.6198901054918053 -6.7111498423502658 -6.7238036791383067 -6.690343222207872 -7.3820138600765652 -6.7674684012758393 -6.4641664491066404 -6.7312561574327523 -6.5152633804440088 -6.433699948102845 -6.5626528526489123 -6.8207136921463629 -6.560178329070995 -6.9077405556482674 -6.4042903208914304 -6.5540526995515753 -7.1067208890667413 -6.9995108257168566 -6.6984808300528753
 -7.233594068933562 -7.5308962677162095 -6.5803815799471117 -6.803328432413859 -7.1224436288055211 -7.4834715008353427 -6.90100724862722 -6.6534025591866417 -7.0777061971465907 -7.9026007259476918 -6.9291844265854072 -7.0149504522515267 -7.0913610215313359 -7.9421088210316562 -6.4797114522573276 -6.6705581848716937 -7.1589604858629796 -6.9394033809379794 -8.3865623339555633 -7.8636828483128935 -7.835654283361615 -7.0659359594306448 -6.7564728390027931 -7.1824415051713615 -7.0618676601006536 -6.7640258725189604 -7.8909566364473873 -6.6783369582808421 -6.8514482420608012 -6.8365994709827911 -6.7773230592509828 -6.9369287231780961 -7.1312890414828347 -6.5532292838249253 -6.5729575002457992 -6.9643857758844279 -7.3251090197573774 -7.1211718936612938 -6.7053204267282878 -7.2793516669127847 -7.2963850425686179 -6.7773230592509828 -7.4456830170669415 -8.7009562250736945 -7.2072652133269193 -7.8666881976002552 -6.9886215849211935 -6.9828693729313338 -7.0541231140002383 -7.7352836815837005
 -7.1561126597719031 -6.9693666852587315 -7.4834716330427771 -7.0650560195256533 -7.0422627792119439 -7.2251935767698479 -6.8067779747099042 -7.3373435784777605 -8.223833661500251 -7.1698524571877966 -7.6830440650690033 -6.9947684222738626 -7.2767115922803676 -7.115494809974626 -6.6977671558705811 -7.422201889325275 -6.7722669960131761 -7.1824415051713615 -6.9306294264116435 -7.1382379279744228 -6.8144649276313256 -7.4082206205292911 -6.6864349934919689 -7.169077559638521 -7.3680781614577295 -7.80223027447704 -6.6336271062707102 -6.8905547651786243 -8.4128908430031917 -7.1067208890667413 -6.9435594060864236 -7.4834715008353427 -7.1350169692151475 -7.6905970450449903 -7.9148354104225103 -6.906235217662938 -7.02885761524277 -7.372773160374245 -7.2654158515686991 -6.8561056292757332 -6.9228043929767722 -7.0416261681640915 -6.9414096277006863 -7.6595630243059336 -6.803328432413859 -7.9306297965924717 -7.1032603803138832 -7.0670481151142326 -8.273522276392395 -6.797090670468787
 -7.8356539858948526 -7.2146263105803934 -8.1169395558266473 -7.1568875574592221 -6.9913734307483137 -6.7293206981241953 -7.3337092410970799 -6.6609661591341682 -6.9474314791961369 -7.4254794712280301 -6.784501496499324 -7.6045152974373851 -7.4377139177294875 -7.0643423190052088 -6.9975764628294401 -7.032055723740295 -7.1233201011281313 -7.4571424687901224 -7.0965269713829224 -6.9987969349879675 -6.6880154944974128 -7.0524820253136884 -8.2493883278538291 -7.8591351147962278 -7.2641116405207793 -7.3828015441034642 -7.7139202767854851 -6.9727417463998655 -7.5346238414975675 -7.6830442743975613 -7.0974307727528965 -6.8361840974189505 -6.976679622843573 -8.0275394856922855 -7.6830440650690033 -7.2998271905078749 -6.8258942345405176 -6.9002969197714661 -7.1211719510671543 -7.3714977594196949 -7.9783212581006886 -7.3073803299179465 -7.4096853651725834 -7.8159099012576156 -7.0182494632946746 -7.8302591633365877 -7.1544128476748305 -6.8924071378841392 -6.9575016673261683 -7.0470374068907269
 -6.8419029912163012 -7.2294381792795628 -7.0855315979292497 -6.7527450173325656 -7.5803814146878494 -6.9245683791796528 -6.9763870814970916 -7.1171748044046819 -6.4773113001309612 -6.5844215670157276 -7.5201944322906078 -7.3999255749823298 -7.0943055028103545 -7.3462983601421357 -6.8346681113612755 -7.2445896305709852 -6.976679622843573 -6.797090670468787 -6.7744012850865483 -6.9087348187184707 -6.7873125785689092 -7.6595630243059336 -7.6125660344980126 -8.3680780600987053 -6.8487426456726181 -7.1552893993477547 -8.2238343886407534 -6.8144649276313256 -6.6625682948196401 -7.2079957759046209 -7.1228558829857969 -6.8907516018652357 -7.6714619997166587 -6.881411575611093 -8.0019852172827566 -6.6963655481005411 -6.881411575611093 -7.8302591633365877 -7.2871768677102304 -6.7929896554328408 -7.5201942884178159 -7.1824415051713615 -6.8319261159180593 -6.4790399873729276 -7.328569435083681 -7.0161101495085489 -6.7564728390027931 -7.6714622035364783 -7.3073803299179465 -6.7817087556420672
 -7.7173663332753257 -7.881411575611093 -7.7488530411993697 -7.2123151389365621 -7.5658823898902297 -7.0944610497825504 -8.0177797995602784 -7.0361005449962217 -7.2193909515001504 -7.7272751429847837 -7.0084413289435767 -7.7002619959765406 -7.8558578111008126 -8.0104022982054008 -8.0957517213012018 -8.1988321628923746 -7.31009978413302 -7.1581580049149149 -7.5300478623909513 -7.3985568189230619 -8.0412796269641937 -7.0186926576370157 -8.6385575703346991 -7.2885892983464027 -7.9800217947464267 -7.7122305075576723 -7.7981237772618286 -8.5943675062033602 -7.7443838144540864 -7.3210814714329917 -9.3159880446205889 -7.6195336852006612 -7.5326897138842428 -7.6496358621933247 -7.1592116203837506 -7.4105884084480369 -7.3835350941594102 -7.8188060536603166 -7.8040973047738458 -7.200114787122696 -7.6756498329742238 -7.489738580151001 -8.9872593427644798 -7.2661899372008421 -7.3989614752942199 -7.4011630032429654 -7.1410488560697054 -7.518441145195002 -6.9234837102169804 -7.5167418646421504
 -7.1561125353413866 -6.840506197907346 -7.315822205951231 -6.8768290692213867 -6.9349938728511669 -6.9940558524620746 -7.0914605636790222 -6.9377520433278335 -6.8365234583183705 -7.039142905545039 -7.0841006704819911 -6.9184327197808235 -7.1888519250435312 -6.8947753512524086 -6.94084873261456 -6.8814112450926315 -7.4993480969717137 -7.0051845966282915 -7.1244499382901578 -6.9473645321276249 -6.9878666494554436 -6.8083897175389136 -7.0500535746643322 -7.0054734948151562 -7.1964776767895762 -7.1121541364032996 -7.321810060824343 -7.1841413792244619 -6.804967311735207 -7.276404456767593 -7.083096670793009 -7.6390659484516137 -7.1518180905087467 -7.225820674340242 -6.8364131890843183 -6.9562044297683547 -6.8709039635139231 -7.1664536610164182 -6.8298906078255115 -7.1063514022045906 -6.7877908146273231 -7.0491634717607043 -7.1288697566935646 -7.1133607940603678 -7.2641115607404343 -7.0561219113227303 -6.9554167339460662 -7.1930025579077199 -6.9201883989020221 -7.5504184006388151
 -7.5518758082941746 -6.9661252950039749 -7.1805970356351825 -6.9859505523528282 -7.7199787395867876 -7.1603069954957359 -7.9908777114980261 -7.2648181113811683 -6.9374323044833517 -7.327124527495215 -7.191323237769514 -7.0597589710042303 -7.4133383315779806 -8.358534020199297 -7.2249608081769514 -7.6084105899968915 -7.1965661019727936 -7.3408039761134249 -6.9802358682121097 -7.0648368296686774 -7.1804629737434853 -7.784501496499324 -7.1946075590818159 -7.5080144911063282 -7.6339406947932007 -6.9614056660290178 -7.7265098139365467 -7.6620516093026421 -7.06246626103664 -7.9109059754287738 -6.8027100667296141 -7.4065113464090357 -7.0764306933103569 -7.4489223617406646 -8.3449598690689974 -7.3354672698253029 -6.9229174781414136 -6.9988831290640929 -7.8648126277844019 -7.6205762686935392 -7.0390857835820873 -7.7254916225403534 -8.4724787507746022 -8.0962557528554271 -7.340172378428206 -7.2738881649165581 -7.2922465221943913 -7.0648783794868324 -7.2892820646553762 -7.7291232731247606